SCIP Status        : solving was interrupted [time limit reached]
Total Time         :    3600.00
  solving          :    3600.00
  presolving       :       0.31 (included in solving)
  reading          :       0.00
  copying          :       2.70 (59 #copies) (minimal 0.00, maximal 0.09, average 0.05)
Original Problem   :
  Problem name     : bbbenchmark/pw05_100.1.cut
  Variables        : 101 (100 binary, 0 integer, 0 implicit integer, 1 continuous)
  Constraints      : 1 initial, 1 maximal
  Objective        : minimize, 1 non-zeros (abs.min = 1, abs.max = 1)
Presolved Problem  :
  Problem name     : t_bbbenchmark/pw05_100.1.cut
  Variables        : 1757 (100 binary, 0 integer, 1640 implicit integer, 17 continuous)
  Constraints      : 1689 initial, 6222 maximal
  Objective        : minimize, 1 non-zeros (abs.min = 1, abs.max = 1)
  Nonzeros         : 8427 constraint, 202 clique table
Presolvers         :   ExecTime  SetupTime  Calls  FixedVars   AggrVars   ChgTypes  ChgBounds   AddHoles    DelCons    AddCons   ChgSides   ChgCoefs
  boundshift       :       0.00       0.00      0          0          0          0          0          0          0          0          0          0
  convertinttobin  :       0.00       0.00      0          0          0          0          0          0          0          0          0          0
  domcol           :       0.00       0.00      1          0          0          0          0          0          0          0          0          0
  dualagg          :       0.00       0.00      0          0          0          0          0          0          0          0          0          0
  dualcomp         :       0.00       0.00      1          0          0          0          0          0          0          0          0          0
  dualinfer        :       0.00       0.00      0          0          0          0          0          0          0          0          0          0
  dualsparsify     :       0.00       0.00      1          0          0          0          0          0          0          0          0          0
  gateextraction   :       0.00       0.00      0          0          0          0          0          0          0          0          0          0
  implics          :       0.00       0.00      2          0          0          0          0          0          0          0          0          0
  inttobinary      :       0.00       0.00      0          0          0          0          0          0          0          0          0          0
  qpkktref         :       0.00       0.00      0          0          0          0          0          0          0          0          0          0
  redvub           :       0.00       0.00      0          0          0          0          0          0          0          0          0          0
  sparsify         :       0.00       0.00      1          0          0          0          0          0          0          0          0          0
  stuffing         :       0.00       0.00      0          0          0          0          0          0          0          0          0          0
  trivial          :       0.00       0.00      4          0          0          0          0          0          0          0          0          0
  tworowbnd        :       0.00       0.00      0          0          0          0          0          0          0          0          0          0
  dualfix          :       0.00       0.00      4          0          0          0          0          0          0          0          0          0
  genvbounds       :       0.00       0.00      0          0          0          0          0          0          0          0          0          0
  probing          :       0.13       0.00      1          0          0          0          0          0          0          0          0          0
  pseudoobj        :       0.00       0.00      1          0          0          0          1          0          0          0          0          0
  symmetry         :       0.00       0.00      0          0          0          0          0          0          0          0          0          0
  vbounds          :       0.00       0.00      1          0          0          0          0          0          0          0          0          0
  varbound         :       0.00       0.00      2          0          0          0          0          0          0          0          0          0
  and              :       0.00       0.01      2          0          0          0          0          0          0          0          0          0
  linear           :       0.00       0.00      2          0          0          0          0          0          0          0          0          0
  logicor          :       0.00       0.00      0          0          0          0          0          0          0          0          0          0
  bounddisjunction :       0.00       0.00      0          0          0          0          0          0          0          0          0          0
  nonlinear        :       0.18       0.00      5          0          0          0          1          0          0       1688          0          0
  benders          :       0.00       0.00      0          0          0          0          0          0          0          0          0          0
  components       :       0.00       0.00      1          0          0          0          0          0          0          0          0          0
  root node        :          -          -      -          0          -          -         13          -          -          -          -          -
Constraints        :     Number  MaxNumber  #Separate #Propagate    #EnfoLP    #EnfoRelax  #EnfoPS    #Check   #ResProp    Cutoffs    DomReds       Cuts    Applied      Conss   Children
  benderslp        :          0          0          0          0      93129          0          0       2892          0          0          0          0          0          0          0
  integral         :          0          0          0          0      93129          0          0       2892          0          0       1051          0          0        422     185516
  varbound         :         16         16        124     611291          0          0          0        126          0          0      65867          0          0          0          0
  and              :       1640       1640     111421     638763          0          0          0        126     398741          1     713932         43         42          0          0
  linear           :         33+        44        124     638819          0          0          0        124       1367          7     406065          0          0          0          0
  logicor          :          0+      4228          0     117571          0          0          0          0         50        345        147          0          0          0          0
  bounddisjunction :          0+       386          0      61733          0          0          0          0          1         22          8          0          0          0          0
  benders          :          0          0          0          0          0          0          0         22          0          0          0          0          0          0          0
  countsols        :          0          0          0          0          0          0          0         22          0          0          0          0          0          0          0
  components       :          0          0          0          0          0          0          0          0          0          0          0          0          0          0          0
Constraint Timings :  TotalTime  SetupTime   Separate  Propagate     EnfoLP     EnfoPS     EnfoRelax   Check    ResProp    SB-Prop
  benderslp        :       0.07       0.00       0.00       0.00       0.07       0.00       0.00       0.00       0.00       0.00
  integral         :      54.11       0.00       0.00       0.00      54.09       0.00       0.00       0.02       0.00       0.00
  varbound         :       1.20       0.00       0.00       1.20       0.00       0.00       0.00       0.00       0.00       0.00
  and              :      85.71       0.01      59.57      25.50       0.00       0.00       0.00       0.01       0.34       0.28
  linear           :       4.54       0.00       0.07       4.37       0.00       0.00       0.00       0.00       0.01       0.09
  logicor          :       7.70       0.00       0.00       7.68       0.00       0.00       0.00       0.00       0.00       0.02
  bounddisjunction :       1.36       0.00       0.00       1.36       0.00       0.00       0.00       0.00       0.00       0.00
  benders          :       0.00       0.00       0.00       0.00       0.00       0.00       0.00       0.00       0.00       0.00
  countsols        :       0.00       0.00       0.00       0.00       0.00       0.00       0.00       0.00       0.00       0.00
  components       :       0.19       0.00       0.00       0.19       0.00       0.00       0.00       0.00       0.00       0.00
Propagators        : #Propagate   #ResProp    Cutoffs    DomReds
  dualfix          :          4          0          0          0
  genvbounds       :          0          0          0          0
  nlobbt           :          0          0          0          0
  obbt             :          0          0          0          0
  probing          :          0          0          0          0
  pseudoobj        :     434304          0          0         24
  redcost          :     220799          0          0     134042
  rootredcost      :          8          0          0          0
  symmetry         :          0          0          0          0
  vbounds          :     110800          0          0          0
Propagator Timings :  TotalTime  SetupTime   Presolve  Propagate    ResProp    SB-Prop
  dualfix          :       0.00       0.00       0.00       0.00       0.00       0.00
  genvbounds       :       0.49       0.00       0.00       0.49       0.00       0.00
  nlobbt           :       0.00       0.00       0.00       0.00       0.00       0.00
  obbt             :       0.00       0.00       0.00       0.00       0.00       0.00
  probing          :       0.13       0.00       0.13       0.00       0.00       0.00
  pseudoobj        :       0.89       0.00       0.00       0.89       0.00       0.00
  redcost          :      13.38       0.00       0.00      13.38       0.00       0.00
  rootredcost      :       0.46       0.00       0.00       0.46       0.00       0.00
  symmetry         :       0.29       0.00       0.00       0.29       0.00       0.00
  vbounds          :       0.47       0.00       0.00       0.47       0.00       0.00
Conflict Analysis  :       Time      Calls    Success    DomReds  Conflicts   Literals    Reconvs ReconvLits   Dualrays   Nonzeros   LP Iters   (pool size: [10000,10000])
  propagation      :       0.04        368        286          -        354       61.9          0        0.0          -          -          -
  infeasible LP    :       0.27         98         98          -       4066      131.3          0        0.0        108      197.7          0
  bound exceed. LP :      19.26       4576       4395          -     121013      105.8          0        0.0          0        0.0      51703
  strong branching :       0.00          0          0          -          0        0.0          0        0.0          -          -          0
  pseudo solution  :       0.00          0          0          -          0        0.0          0        0.0          -          -          -
  applied globally :       0.46          -          -          0      24345      114.0          -          -        108          -          -
  applied locally  :          -          -          -          0          0        0.0          -          -          0          -          -
Separators         :   ExecTime  SetupTime      Calls  RootCalls    Cutoffs    DomReds  FoundCuts ViaPoolAdd  DirectAdd    Applied ViaPoolApp  DirectApp      Conss
  cut pool         :      11.24          -      26973        151          -          -      35967    3756622          -          -          -          -          -    (maximal pool size:       4644)
  aggregation      :     401.73       0.00       5991        124          0          0         52          4          0          2          2          0          0
  > cmir           :          -          -          -          -          -          -          -          4          0          2          2          0          -
  > flowcover      :          -          -          -          -          -          -          -          0          0          0          0          0          -
  > knapsackcover  :          -          -          -          -          -          -          -          0          0          0          0          0          -
  cgmip            :       0.00       0.00          0          0          0          0          0          0          0          0          0          0          0
  clique           :       0.00       0.00        124        124          0          0          0          0          0          0          0          0          0
  closecuts        :       0.00       0.00          0          0          0          0          0          0          0          0          0          0          0
  convexproj       :       0.00       0.00          0          0          0          0          0          0          0          0          0          0          0
  disjunctive      :       0.00       0.00          0          0          0          0          0          0          0          0          0          0          0
  eccuts           :       0.00       0.00          0          0          0          0          0          0          0          0          0          0          0
  gauge            :       0.00       0.00          0          0          0          0          0          0          0          0          0          0          0
  gomory           :       0.00       0.00          0          0          0          0          0          0          0          0          0          0          0
  > gomorymi       :          -          -          -          -          -          -          -          0          0          0          0          0          -
  > strongcg       :          -          -          -          -          -          -          -          0          0          0          0          0          -
  impliedbounds    :       0.36       0.00       5991        124          0          0          0          0          0          0          0          0          0
  interlattice     :       0.00       0.00          0          0          0          0          0          0          0          0          0          0          0
  interminor       :       0.00       0.00          0          0          0          0          0          0          0          0          0          0          0
  intersub         :       1.55       0.00         80         80          0          0         80          0         80         80          0         80          0
  intobj           :       0.00       0.00          0          0          0          0          0          0          0          0          0          0          0
  mcf              :       0.00       0.00          1          1          0          0          0          0          0          0          0          0          0
  minor            :       0.02       0.00          0          0          0          0          0          0          0          0          0          0          0
  mixing           :       0.02       0.00       5991        124          0          0          0          0          0          0          0          0          0
  oddcycle         :       0.00       0.00          0          0          0          0          0          0          0          0          0          0          0
  rapidlearning    :       0.00       0.00          0          0          0          0          0          0          0          0          0          0          0
  rlt              :       0.00       0.00         10         10          0          0          0          0          0          0          0          0          0
  zerohalf         :      46.31       0.00       4743         20          0          0      35915    3756618          0     189217     189217          0          0
Cutselectors       :   ExecTime  SetupTime      Calls  RootCalls   Selected     Forced   Filtered  RootSelec   RootForc   RootFilt 
  hybrid           :       4.21       0.00      12840        122     189341          0    3567404        281          0          2
Pricers            :   ExecTime  SetupTime      Calls       Vars
  problem variables:       0.00          -          0          0
Branching Rules    :   ExecTime  SetupTime   BranchLP  BranchExt   BranchPS    Cutoffs    DomReds       Cuts      Conss   Children
  allfullstrong    :       0.00       0.00          0          0          0          0          0          0          0          0
  cloud            :       0.00       0.00          0          0          0          0          0          0          0          0
  distribution     :       0.00       0.00          0          0          0          0          0          0          0          0
  fullstrong       :       0.00       0.00          0          0          0          0          0          0          0          0
  inference        :       0.00       0.00          0          0          0          0          0          0          0          0
  leastinf         :       0.00       0.00          0          0          0          0          0          0          0          0
  lookahead        :       0.00       0.00          0          0          0          0          0          0          0          0
  mostinf          :       0.00       0.00          0          0          0          0          0          0          0          0
  multaggr         :       0.00       0.00          0          0          0          0          0          0          0          0
  nodereopt        :       0.00       0.00          0          0          0          0          0          0          0          0
  pscost           :       0.00       0.00          0          0          0          0          0          0          0          0
  random           :       0.00       0.00          0          0          0          0          0          0          0          0
  relpscost        :      53.77       0.00      93129          0          0          0       1051          0        422     185516
  vanillafullstrong:       0.00       0.00          0          0          0          0          0          0          0          0
Primal Heuristics  :   ExecTime  SetupTime      Calls      Found       Best
  LP solutions     :       0.00          -          -          0          0
  relax solutions  :       0.00          -          -          0          0
  pseudo solutions :       0.00          -          -          0          0
  strong branching :       0.02          -          -          0          0
  actconsdiving    :       0.00       0.00          0          0          0
  adaptivediving   :      13.48       0.00         83          1          1
  alns             :       3.83       0.00         21          4          4
  bound            :       0.00       0.00          0          0          0
  clique           :       0.01       0.00          1          0          0
  coefdiving       :       0.00       0.00          0          0          0
  completesol      :       0.00       0.00          0          0          0
  conflictdiving   :     128.81       0.00        883          0          0
  crossover        :       0.23       0.00          1          0          0
  dins             :       0.00       0.00          0          0          0
  distributiondivin:      60.62       0.00        237          0          0
  dps              :       0.00       0.00          0          0          0
  dualval          :       0.00       0.00          0          0          0
  farkasdiving     :       0.01       0.00          0          0          0
  feaspump         :       0.73       0.00          1          1          1
  fixandinfer      :       0.00       0.00          0          0          0
  fracdiving       :      49.46       0.00        302          0          0
  gins             :       0.17       0.00          0          0          0
  guideddiving     :      46.09       0.00        313          0          0
  indicator        :       0.13       0.00          0          0          0
  indicatordiving  :       0.00       0.00          0          0          0
  intdiving        :       0.00       0.00          0          0          0
  intshifting      :       0.54       0.00         36          0          0
  linesearchdiving :      43.99       0.00        305          0          0
  localbranching   :       0.00       0.00          0          0          0
  locks            :       0.00       0.00          1          0          0
  lpface           :       0.21       0.00          0          0          0
  mpec             :     292.23       0.00         11          0          0
  multistart       :       0.00       0.00          0          0          0
  mutation         :       0.00       0.00          0          0          0
  nlpdiving        :      47.08       0.00          3          1          0
  objpscostdiving  :      23.01       0.00         33          1          0
  octane           :       0.00       0.00          0          0          0
  ofins            :       0.10       0.00          0          0          0
  oneopt           :       0.13       0.00         13          0          0
  padm             :       0.00       0.00          0          0          0
  proximity        :       0.00       0.00          0          0          0
  pscostdiving     :      48.75       0.00        267          2          2
  randrounding     :       0.94       0.00       2866          0          0
  rens             :       0.00       0.00          0          0          0
  reoptsols        :       0.00       0.00          0          0          0
  repair           :       0.00       0.00          0          0          0
  rins             :       5.10       0.00         37          2          2
  rootsoldiving    :      20.15       0.00         28          0          0
  rounding         :       1.37       0.00       4404          0          0
  shiftandpropagate:       0.00       0.00          0          0          0
  shifting         :      44.55       0.00       9728          4          3
  simplerounding   :       0.19       0.00          0          0          0
  subnlp           :     153.53       0.00          0          0          0
  trivial          :       0.00       0.00          2          2          2
  trivialnegation  :       0.00       0.00          0          0          0
  trustregion      :       0.00       0.00          0          0          0
  trysol           :       0.20       0.00          0          0          0
  twoopt           :       0.00       0.00          0          0          0
  undercover       :       0.29       0.00          1          1          1
  vbounds          :       0.00       0.00          0          0          0
  veclendiving     :      43.67       0.00        316          0          0
  zeroobj          :       0.00       0.00          0          0          0
  zirounding       :       0.38       0.00       1000          0          0
  other solutions  :          -          -          -          0          -
Diving (single)    :      Calls      Nodes   LP Iters Backtracks  Conflicts   MinDepth   MaxDepth   AvgDepth  RoundSols  NLeafSols  MinSolDpt  MaxSolDpt  AvgSolDpt
  actconsdiving    :          0          -          -          -          -          -          -          -          -          -          -          -          -
  coefdiving       :          0          -          -          -          -          -          -          -          -          -          -          -          -
  conflictdiving   :        883      38099     967970        934      57578         55         83       64.7          0          -          -          -          -
  distributiondivin:        237       9190     333875        270       6772         51         71       58.4          0          -          -          -          -
  farkasdiving     :          0          -          -          -          -          -          -          -          -          -          -          -          -
  fracdiving       :        302      35570     331340         72       1741         60        322      138.5          0          -          -          -          -
  guideddiving     :        313      28664     330190        106       4175         59        208      114.0          0          -          -          -          -
  indicatordiving  :          0          -          -          -          -          -          -          -          -          -          -          -          -
  linesearchdiving :        305      14277     331104        240      15038         51         95       67.5          0          -          -          -          -
  pscostdiving     :        267      11500     355778        281      10052         50         78       62.6          0          2         68         78       73.0
  veclendiving     :        316      13678     330763        241      20880         51         91       63.8          0          -          -          -          -
Diving (adaptive)  :      Calls      Nodes   LP Iters Backtracks  Conflicts   MinDepth   MaxDepth   AvgDepth  RoundSols  NLeafSols  MinSolDpt  MaxSolDpt  AvgSolDpt
  actconsdiving    :          7        251       8447          7        129         53         60       57.4          0          -          -          -          -
  coefdiving       :         23        929      22090         12       1246         56         78       61.8          0          -          -          -          -
  conflictdiving   :          0          -          -          -          -          -          -          -          -          -          -          -          -
  distributiondivin:          0          -          -          -          -          -          -          -          -          -          -          -          -
  farkasdiving     :          0          -          -          -          -          -          -          -          -          -          -          -          -
  fracdiving       :          2        340       2583          0          0        115        261      188.0          0          -          -          -          -
  guideddiving     :          9       1026      11278          1         93         84        179      131.8          0          1         84         84       84.0
  indicatordiving  :          0          -          -          -          -          -          -          -          -          -          -          -          -
  linesearchdiving :         26       1501      33359         14       1204         52         90       73.2          0          -          -          -          -
  pscostdiving     :          5        185       5931          6        168         59         67       61.8          0          -          -          -          -
  veclendiving     :         11        441      10059          4        508         57         82       64.3          0          -          -          -          -
Neighborhoods      :      Calls  SetupTime  SolveTime SolveNodes       Sols       Best       Exp3  EpsGreedy        UCB TgtFixRate  Opt  Inf Node Stal  Sol  Usr Othr Actv
  rens             :          3       0.27       0.18         91          0          0    0.00000   -1.00000    0.44720      0.662    0    2    0    1    0    0    0    1
  rins             :          2       0.09       0.11         69          0          0    0.00000   -1.00000    0.46279      0.850    0    1    0    1    0    0    0    1
  mutation         :          2       0.16       0.08         56          0          0    0.00000   -1.00000    0.47404      0.850    0    1    0    1    0    0    0    1
  localbranching   :          4       0.26       0.30        349          1          1    0.00000   -1.00000    0.48032      0.897    0    1    0    3    0    0    0    1
  crossover        :          4       0.29       0.49         69          0          0    0.00000   -1.00000    0.46206      0.522    0    3    0    1    0    0    0    1
  proximity        :          2       0.09       1.14       1133          1          1    0.00000   -1.00000    0.50003      0.850    1    0    0    1    0    0    0    1
  zeroobjective    :          2       0.17       0.06         85          0          0    0.00000   -1.00000    0.46110      0.850    0    1    0    1    0    0    0    1
  dins             :          2       0.01       0.01          7          2          2    0.00000   -1.00000    0.49920      0.700    1    0    0    0    0    0    1    1
  trustregion      :          0       0.00       0.00          0          0          0    0.00000   -1.00000    1.00000      0.900    0    0    0    0    0    0    0    0
Expressions        :   #IntEval  IntEvalTi   #RevProp  RevPropTi    DomReds    Cutoffs  #Estimate  EstimTime  Branching  #Simplify SimplifyTi Simplified
  pow              :          0       0.00          0       0.00          0          0          0       0.00          0          0       0.00          0
  prod             :       9900       0.00          0       0.00          0          0          0       0.00          0       6590       0.01          0
  sum              :          8       0.00          2       0.00          0          0          0       0.00          0          3       0.03          2
  var              :       6080       0.00          0       0.00          0          0          0       0.00          0      15139       0.01          0
  varidx           :          0       0.00          0       0.00          0          0          0       0.00          0          0       0.00          0
LP                 :       Time      Calls Iterations  Iter/call   Iter/sec  Time-0-It Calls-0-It    ItLimit
  primal LP        :     175.82      13936          0       0.00       0.00     175.78      13936
  dual LP          :    1584.43     187227    6378753      38.54    4025.90      11.23      21715
  lex dual LP      :       0.00          0          0       0.00          -
  barrier LP       :       0.00          0          0       0.00          -       0.00          0
  resolve instable :       0.00          0          0       0.00          -
  diving/probing LP:     405.15      11450    3284546     286.86    8106.99
  strong branching :      25.59       1479     138377      93.56    5407.46          -          -        186
    (at root node) :          -         19       7844     412.84          -
  conflict analysis:       8.93       5358      51703       9.65    5789.81
NLP relaxation     :
  solve time       :      46.63 (12 calls)
  convexity        :  nonconvex (49 linear rows, 0 convex ineq., 0 nonconvex ineq., 1640 nonlinear eq. or two-sided ineq.)
NLP Solvers        :  #Problems  ProblemTi    #Solves  SolveTime      #Iter  Time/Iter      #Okay #TimeLimit #IterLimit #LObjLimit #Interrupt  #NumError #EvalError  #OutOfMem #LicenseEr #OtherTerm   #GlobOpt    #LocOpt  #Feasible #LocInfeas #GlobInfea #Unbounded   #Unknown
  ipopt            :         12       6.89         40     341.82       1801       0.19         38          0          2          0          0          0          0          0          0          0          0         23          0         14          0          0          3
B&B Tree           :
  number of runs   :          1
  nodes            :     152334 (92758 internal, 59576 leaves)
  feasible leaves  :          0
  infeas. leaves   :          2
  objective leaves :      59573
  nodes (total)    :     152334 (92758 internal, 59576 leaves)
  nodes left       :      32975
  max depth        :         67
  max depth (total):         67
  backtracks       :      36570 (24.0%)
  early backtracks :          0 (0.0%)
  nodes exc. ref.  :          0 (0.0%)
  delayed cutoffs  :         17
  repropagations   :        148 (614 domain reductions, 2 cutoffs)
  avg switch length:       6.42
  switching time   :     212.64
Estim. Tree Size   :     305084
Estimation Tree    : 185517 nodes (152542 visited, 92758 internal, 59784 leaves, 32975 open), weight: 0.0000 completed 0.1087
Estimations        :      estim      value      trend resolution     smooth
  wbe              : 3180877629819696          -          -          -          -
  tree-profile     :         -1          -          -          -          -
  gap              :    4463060    0.68389    0.00001         64    4364466
  tree-weight      :     305084    0.00000    0.00000         64     304935
  leaf-frequency   :     305084    0.39192   -0.00000         64     304952
  ssg              :    8253639    0.82836   -0.00001         64    8371816
  open-nodes       :     305084 32975.00000   36.89971         64     304935
Root Node          :
  First LP value   : -5.47070707070708e+00
  First LP Iters   :       1636 (18177.78 Iter/sec)
  First LP Time    :       0.09
  Final Dual Bound : -5.21036572806281e+00
  Final Root Iters :       6698
  Root LP Estimate : -1.88944283572418e+00
Solution           :
  Solutions found  :         19 (16 improvements)
  First Solution   : +1.00000000000000e+05   (in run 1, after 0 nodes, 0.01 seconds, depth 0, found by <trivial>)
  Gap First Sol.   :   infinite
  Gap Last Sol.    :      49.59 %
  Primal Bound     : -3.12969696969696e+00   (in run 1, after 56737 nodes, 1954.19 seconds, depth 20, found by <alns>)
  Dual Bound       : -4.57634764529845e+00
  Gap              :      46.22 %
Integrals          :      Total       Avg%
  primal-dual      :  125188.99      34.77
  primal-ref       :          -          - (not evaluated)
  dual-ref         :          -          - (not evaluated)
